results/x-10M/X-n190-k8.vrp_seed-8.out
16981	11598
