results/x-10M/X-n190-k8.vrp_seed-8.vrp.sol
Route #1: 105 19 57 63 66 171 13 120 168 110 4 163 128 34 103 108 129 156 133 72 139 149 45 99 118 131
Route #2: 102 28 138 85 77 86 125 137 151 174 41 152 87 186 146 177 123 52 71 101 47 5 176 12 24 97 143 95
Route #3: 81 21 179 62 42 90 96 3 15 27 187 124 140 189 154 53 114 9 23 164 158 121 67 14
Route #4: 170 157 173 134 107 33 65 20 162 7 155 17 79 60 116 82 122 11 175 117 26 49 119 106
Route #5: 73 112 169 80 78 147 150 30 39 36 22 38 2 6 35 109 89 104 142 159 58 43 10
Route #6: 46 135 145 115 144 94 50 178 69 55 59 91 113 111 74 161 132 75 93 51 166 16
Route #7: 37 29 83 182 160 184 1 165 88 44 127 172
Route #8: 188 64 25 183 136 167 148 141 98 84 153 180 61 32 40 18 185 76 70 181 126 54 48 130 56 8 100 68 92 31
Cost 16981.000000